70 
300 
-0.5 0 0 0
0.5 0 0 -117
-7 -7 -35 -134
-7 -5 35 -14
-7 -3 -35 -64
-7 -1 35 -14
-7 1 -35 -78
-7 3 -35 -66
-7 5 35 -11
-7 7 35 -11
-5 -7 35 -27
-5 -5 25 -13
-5 -3 25 -16
-5 -1 -25 -128
-5 1 -25 -73
-5 3 -25 -61
-5 5 25 -20
-5 7 -35 -120
-3 -7 -35 -133
-3 -5 -25 -111
-3 -3 -15 -92
-3 -1 15 -21
-3 1 15 -11
-3 3 15 -10
-3 5 -25 -70
-3 7 -35 -117
-1 -7 -35 -102
-1 -5 -25 -116
-1 -3 -15 -63
-1 -1 -5 -101
-1 1 5 -18
-1 3 15 -14
-1 5 -25 -69
-1 7 -35 -73
1 -7 -35 -65
1 -5 -25 -66
1 -3 15 -19
1 -1 5 -12
1 1 -5 -75
1 3 -15 -76
1 5 25 -26
1 7 35 -29
3 -7 -35 -64
3 -5 -25 -115
3 -3 15 -23
3 -1 15 -25
3 1 15 -20
3 3 -15 -68
3 5 25 -29
3 7 -35 -114
5 -7 35 -12
5 -5 -25 -88
5 -3 25 -22
5 -1 25 -11
5 1 -25 -121
5 3 25 -18
5 5 25 -29
5 7 35 -27
7 -7 -35 -71
7 -5 -35 -109
7 -3 -35 -130
7 -1 -35 -71
7 1 35 -17
7 3 -35 -61
7 5 -35 -69
7 7 -35 -61
